10J3M/DAT/10J3MNNX-11.dat
10 3
29.3029 5.4132
24.4184 4.9415
27.8346 5.2759
25.1675 5.0167
24.102 4.9094
22.3434 4.7269
19.6015 4.4274
26.8116 5.178
22.3898 4.7318
28.0776 5.2988
49.9196