10J3M/SOL/10J3MNNX-11.sol
solution status: optimal solution found
objective value:                     81.4745333333333
x#1#1                                               1 	(obj:0)
x#2#1                                               1 	(obj:0)
x#3#2                                               1 	(obj:0)
x#4#1                               0.678757805069677 	(obj:0)
x#4#2                               0.321242194930322 	(obj:0)
x#5#1                                               1 	(obj:0)
x#6#3                                               1 	(obj:0)
x#7#2                               0.387296687200738 	(obj:0)
x#7#3                               0.612703312799263 	(obj:0)
x#8#2                                               1 	(obj:0)
x#9#2                                               1 	(obj:0)
x#10#3                                              1 	(obj:0)
z                                    81.4745333333333 	(obj:1)
